(set-logic LIA)
(synth-fun next ((brake Int) (distance Int) (speed Int) (throttle Int) (ignition Bool) (time Int) ) Int
	((Start Int) (Var Int) (StartBool Bool))
	((Start Int (
				 3
				 5
				 (ite StartBool Start Start)))

	(Var Int (
			 0
			 1
			 2
			 6
			 8
			 11
			 20
			 300
			 593
			 brake
			 distance
			 speed
			 throttle
			 time
			 (+ Var Var)						
			 (- Var Var)						
			 (* Var Var)))

	(StartBool Bool (
				 	 ignition
					(= Var Var)						
					(>= Var Var)						
					(<= Var Var)						
					(and StartBool StartBool)			
					(or  StartBool StartBool)				
					(not StartBool)))))

(constraint (= (next 0 3 28 0 true 805 ) 5))
(constraint (= (next 0 12 12 1 true 381 ) 3))

(check-synth)
